qbf_easy_train/easy_3141_SAT.qdimacs
p cnf 31 84
a 10 3 0
e 1 2 4 5 6 7 8 9 11 12 13 14 15 16 17 18 19 20 21 22 23 24 25 26 27 28 29 30 31 0
3 1 0
3 2 0
-1 -2 -3 0
1 -4 -5 0
-1 4 -5 0
1 4 5 0
-1 -4 5 0
3 5 -6 0
-3 -5 -6 0
3 -5 6 0
-3 5 6 0
3 7 0
-3 7 0
-8 4 0
-8 7 0
-4 -7 8 0
6 8 -9 0
-6 -8 -9 0
6 -8 9 0
-6 8 9 0
-2 11 -12 0
2 -11 -12 0
-2 -11 12 0
2 11 12 0
-13 10 0
-13 -12 0
-10 12 13 0
14 -2 0
14 -13 0
2 13 -14 0
15 9 0
15 -14 0
-9 14 -15 0
-16 -2 -17 0
16 2 -17 0
-16 2 17 0
16 -2 17 0
18 -10 0
18 17 0
10 -17 -18 0
-19 -3 0
-19 -18 0
3 18 19 0
20 5 0
20 -12 0
-5 12 -20 0
-22 -20 0
-22 -21 0
20 21 22 0
-24 18 0
-24 23 0
-18 -23 24 0
22 -24 -25 0
-22 24 -25 0
22 24 25 0
-22 -24 25 0
-26 5 0
-26 5 0
-5 26 0
-25 26 -27 0
25 -26 -27 0
-25 -26 27 0
25 26 27 0
28 10 0
28 11 0
-10 -11 -28 0
-29 27 0
-29 28 0
-27 -28 29 0
-30 -19 0
-30 -29 0
19 29 30 0
-31 15 0
-31 -30 0
-15 30 31 0
5 4 -11 -1 -21 0
21 8 -4 0
-19 16 -28 -12 -26 0
19 -23 -9 3 -27 6 -25 0
-5 -11 3 -26 0
-1 5 -30 -7 8 27 19 0
-26 -3 13 -1 20 -31 0
-22 29 0
31 0
