sat_easy_train/easy_3141_SAT.dimacs
p cnf 146 494
-3 -1 0
-3 -2 0
1 2 3 0
-3 4 -5 0
3 -4 -5 0
-3 -4 5 0
3 4 5 0
6 -7 -8 0
-6 7 -8 0
6 7 8 0
-6 -7 8 0
3 8 -9 0
-3 -8 -9 0
3 -8 9 0
-3 8 9 0
5 9 -10 0
-5 -9 -10 0
5 -9 10 0
-5 9 10 0
12 4 0
12 -2 0
-4 2 -12 0
-13 12 0
-13 -8 0
-12 8 13 0
-16 14 0
-16 -15 0
-14 15 16 0
17 -13 0
17 16 0
13 -16 -17 0
18 11 0
18 17 0
-11 -17 -18 0
-10 -18 -19 0
10 18 -19 0
-10 18 19 0
10 -18 19 0
-21 -20 0
-21 15 0
20 -15 21 0
22 -19 0
22 -21 0
19 21 -22 0
-25 23 0
-25 24 0
-23 -24 25 0
26 -8 0
26 -25 0
8 25 -26 0
-27 14 0
-27 -20 0
-14 20 27 0
-28 2 0
-28 27 0
-2 -27 28 0
-26 28 -29 0
26 -28 -29 0
-26 -28 29 0
26 28 29 0
-32 2 0
-32 -31 0
-2 31 32 0
32 24 -33 0
-32 -24 -33 0
32 -24 33 0
-32 24 33 0
34 30 0
34 -33 0
-30 33 -34 0
35 -26 0
35 -34 0
26 34 -35 0
36 35 0
36 -11 0
-35 11 -36 0
37 -24 0
37 34 0
24 -34 -37 0
38 -8 0
38 -37 0
8 37 -38 0
-39 -20 0
-39 38 0
20 -38 39 0
36 -39 -40 0
-36 39 -40 0
36 39 40 0
-36 -39 40 0
-41 29 0
-41 40 0
-29 -40 41 0
-42 32 0
-42 14 0
-32 -14 42 0
-43 6 -44 0
43 -6 -44 0
-43 -6 44 0
43 6 44 0
-45 44 0
-45 -17 0
-44 17 45 0
-42 -45 -46 0
42 45 -46 0
-42 45 46 0
42 -45 46 0
41 46 -47 0
-41 -46 -47 0
41 -46 47 0
-41 46 47 0
48 27 0
48 -2 0
-27 2 -48 0
43 48 -49 0
-43 -48 -49 0
43 -48 49 0
-43 48 49 0
-50 -4 0
-50 -49 0
4 49 50 0
-51 33 0
-51 -50 0
-33 50 51 0
52 51 0
52 50 0
-51 -50 -52 0
-2 52 -53 0
2 -52 -53 0
-2 -52 53 0
2 52 53 0
54 24 0
54 -49 0
-24 49 -54 0
55 7 0
55 2 0
-7 -2 -55 0
-56 7 0
-56 -55 0
-7 55 56 0
57 -13 0
57 -56 0
13 56 -57 0
-57 24 -58 0
57 -24 -58 0
-57 -24 58 0
57 24 58 0
54 -58 -59 0
-54 58 -59 0
54 58 59 0
-54 -58 59 0
60 -4 0
60 24 0
4 -24 -60 0
-61 -14 0
-61 60 0
14 -60 61 0
-28 -61 -62 0
28 61 -62 0
-28 61 62 0
28 -61 62 0
36 -33 -63 0
-36 33 -63 0
36 33 63 0
-36 -33 63 0
64 -32 0
64 -32 0
32 -64 0
-65 63 0
-65 -64 0
-63 64 65 0
-66 -62 0
-66 -65 0
62 65 66 0
67 -25 0
67 -60 0
25 60 -67 0
-68 64 0
-68 34 0
-64 -34 68 0
69 -37 0
69 15 0
37 -15 -69 0
70 69 0
70 28 0
-69 -28 -70 0
71 68 0
71 70 0
-68 -70 -71 0
-72 67 0
-72 -71 0
-67 71 72 0
-73 66 0
-73 -72 0
-66 72 73 0
8 -36 -74 0
-8 36 -74 0
8 36 74 0
-8 -36 74 0
-73 -74 -75 0
73 74 -75 0
-73 74 75 0
73 -74 75 0
76 1 0
76 11 0
-1 -11 -76 0
-77 -27 0
-77 33 0
27 -33 77 0
-78 77 0
-78 -36 0
-77 36 78 0
79 78 0
79 15 0
-78 -15 -79 0
-80 76 0
-80 -79 0
-76 79 80 0
75 80 -81 0
-75 -80 -81 0
75 -80 81 0
-75 80 81 0
59 81 -82 0
-59 -81 -82 0
59 -81 82 0
-59 81 82 0
68 -1 -83 0
-68 1 -83 0
68 1 83 0
-68 -1 83 0
25 -83 -84 0
-25 83 -84 0
25 83 84 0
-25 -83 84 0
85 82 0
85 -84 0
-82 84 -85 0
-53 85 -86 0
53 -85 -86 0
-53 -85 86 0
53 85 86 0
-87 -43 0
-87 63 0
43 -63 87 0
-88 87 0
-88 30 0
-87 -30 88 0
88 -51 -89 0
-88 51 -89 0
88 51 89 0
-88 -51 89 0
-90 -86 0
-90 -89 0
86 89 90 0
-91 -47 0
-91 90 0
47 -90 91 0
92 -22 0
92 91 0
22 -91 -92 0
-94 93 0
-94 1 0
-93 -1 94 0
-44 94 -95 0
44 -94 -95 0
-44 -94 95 0
44 94 95 0
-96 4 0
-96 -33 0
-4 33 96 0
-97 -28 0
-97 96 0
28 -96 97 0
98 -97 0
98 -30 0
97 30 -98 0
99 -95 0
99 98 0
95 -98 -99 0
4 83 -100 0
-4 -83 -100 0
4 -83 100 0
-4 83 100 0
101 99 0
101 100 0
-99 -100 -101 0
102 -7 0
102 -16 0
7 16 -102 0
-6 102 -103 0
6 -102 -103 0
-6 -102 103 0
6 102 103 0
104 50 0
104 -8 0
-50 8 -104 0
-105 103 0
-105 -104 0
-103 104 105 0
101 -105 -106 0
-101 105 -106 0
101 105 106 0
-101 -105 106 0
107 -93 0
107 -43 0
93 43 -107 0
108 -55 0
108 -107 0
55 107 -108 0
-109 -34 0
-109 -7 0
34 7 109 0
110 -4 0
110 109 0
4 -109 -110 0
111 -56 0
111 -63 0
56 63 -111 0
112 51 0
112 -50 0
-51 50 -112 0
113 111 0
113 112 0
-111 -112 -113 0
-114 -110 0
-114 113 0
110 -113 114 0
115 15 0
115 48 0
-15 -48 -115 0
49 87 -116 0
-49 -87 -116 0
49 -87 116 0
-49 87 116 0
117 42 0
117 36 0
-42 -36 -117 0
118 -117 0
118 -37 0
117 37 -118 0
116 118 -119 0
-116 -118 -119 0
116 -118 119 0
-116 118 119 0
-115 -119 -120 0
115 119 -120 0
-115 119 120 0
115 -119 120 0
-121 -114 0
-121 120 0
114 -120 121 0
-122 108 0
-122 -121 0
-108 121 122 0
123 106 0
123 -122 0
-106 122 -123 0
-124 24 0
-124 -32 0
-24 32 124 0
-125 63 0
-125 124 0
-63 -124 125 0
126 125 0
126 51 0
-125 -51 -126 0
127 -57 0
127 26 0
57 -26 -127 0
126 -127 -128 0
-126 127 -128 0
126 127 128 0
-126 -127 128 0
-129 23 0
-129 25 0
-23 -25 129 0
-130 69 0
-130 35 0
-69 -35 130 0
131 -129 0
131 -130 0
129 130 -131 0
132 -128 0
132 131 0
128 -131 -132 0
123 132 -133 0
-123 -132 -133 0
123 -132 133 0
-123 132 133 0
-134 -92 0
-134 -133 0
92 133 134 0
135 57 0
135 14 0
-57 -14 -135 0
136 -6 -137 0
-136 6 -137 0
136 6 137 0
-136 -6 137 0
138 135 0
138 137 0
-135 -137 -138 0
-139 134 0
-139 -138 0
-134 138 139 0
-140 -11 0
-140 -23 0
11 23 140 0
141 -140 0
141 124 0
140 -124 -141 0
-142 -124 0
-142 49 0
124 -49 142 0
126 -26 -143 0
-126 26 -143 0
126 26 143 0
-126 -26 143 0
-142 143 -144 0
142 -143 -144 0
-142 -143 144 0
142 143 144 0
141 -144 -145 0
-141 144 -145 0
141 144 145 0
-141 -144 145 0
139 145 -146 0
-139 -145 -146 0
139 -145 146 0
-139 145 146 0
-12 139 -125 0
-4 -30 0
115 9 -119 79 0
9 -3 -27 -4 0
-38 146 131 141 0
-125 31 -137 -19 0
9 -140 121 31 0
49 74 40 -107 0
49 74 0
-83 37 -30 -8 88 115 0
-82 142 71 -121 7 0
-129 112 121 0
2 -68 39 0
70 -13 -62 30 0
-118 -73 68 -67 21 102 0
102 61 -119 -72 0
-95 57 0
-15 -125 -64 -63 0
-103 129 -119 0
-65 52 0
-45 -132 29 -16 -40 0
7 -112 49 -53 -91 0
-32 63 -145 0
67 99 135 14 0
100 -138 -56 93 -112 0
19 43 -37 0
-117 140 0
96 -75 -76 0
-113 67 -21 68 -135 0
-27 -94 -117 0
77 -124 -58 0
-98 -119 -28 106 65 -143 0
65 73 121 0
-83 -116 -60 0
-53 37 108 0
68 79 -35 0
66 4 26 0
69 -117 0
-86 118 0
67 -61 -139 10 53 0
-39 82 -97 133 105 0
-56 -7 20 -98 69 -16 0
-45 -80 144 141 0
-116 -51 -135 -12 46 0
15 -5 -35 -78 146 -29 0
50 -19 73 96 58 -111 0
92 -142 105 0
71 -97 -1 0
-103 -47 -5 0
80 -56 73 -68 -93 0
-104 21 6 -79 -20 0
-82 -122 137 0
-113 130 116 53 -104 0
-53 141 18 85 -36 0
-38 -39 54 -83 26 -125 0
45 12 0
-18 143 -98 -55 90 -100 0
-119 66 -139 -126 23 0
-120 0
-134 -6 -143 32 51 -93 0
67 -107 -66 0
-19 83 88 0
101 99 1 113 0
137 -139 -41 0
146 0
